decision_x1=[0,7];
decision_x2=[0,7];
decision_x3=[0,7];
decision_x4=[0,7];
decision_x5=[0,7];
decision_x6=[0,7];
decision_x7=[0,7];
decision_x8=[0,7];
decision_x9=[0,7];
decision_x10=[0,7];
decision_x11=[0,7];
decision_x12=[0,7];
decision_x13=[0,7];
decision_x14=[0,7];
decision_x15=[0,7];
decision_x16=[0,7];
random_y1=[0,7];
random_y2=[0,7];
random_y3=[0,7];
random_y4=[0,7];
random_y5=[0,7];
random_y6=[0,7];
random_y7=[0,7];
constraint_x2_x1=[
0,0,6.5|
0,1,9|
0,2,1.8|
0,3,3|
0,4,7|
0,5,6.2|
0,6,0.9|
0,7,2.6|
1,0,6.8|
1,1,0.98|
1,2,0.98|
1,3,7.4|
1,4,0.55|
1,5,4.4|
1,6,5.5|
1,7,8.7|
2,0,3.9|
2,1,6.6|
2,2,3|
2,3,1.1|
2,4,8.4|
2,5,8.1|
2,6,6.2|
2,7,3.9|
3,0,5.4|
3,1,9.2|
3,2,4.3|
3,3,2.3|
3,4,6|
3,5,3.8|
3,6,4.7|
3,7,3.6|
4,0,7.4|
4,1,4.6|
4,2,0.86|
4,3,2.9|
4,4,3.7|
4,5,7.6|
4,6,5.8|
4,7,8.5|
5,0,5.6|
5,1,0.34|
5,2,0.94|
5,3,9.9|
5,4,6.4|
5,5,5|
5,6,9.5|
5,7,8|
6,0,8|
6,1,0.72|
6,2,6.7|
6,3,9.3|
6,4,2.3|
6,5,2.6|
6,6,7.9|
6,7,5.9|
7,0,5.2|
7,1,4.6|
7,2,6.6|
7,3,4.7|
7,4,7.4|
7,5,3.7|
7,6,7.2|
7,7,6.8|
];
constraint_x3_x2=[
0,0,3|
0,1,6.4|
0,2,7.2|
0,3,4.9|
0,4,7.1|
0,5,7.9|
0,6,9.9|
0,7,7.9|
1,0,5.5|
1,1,4.3|
1,2,4.9|
1,3,0.61|
1,4,7.8|
1,5,5.7|
1,6,4.3|
1,7,1.1|
2,0,6.3|
2,1,5.3|
2,2,0.25|
2,3,6.6|
2,4,5.3|
2,5,9|
2,6,1.4|
2,7,3.5|
3,0,8.7|
3,1,0.44|
3,2,4.8|
3,3,7.5|
3,4,9.6|
3,5,2.5|
3,6,9.6|
3,7,6.9|
4,0,9.4|
4,1,7.7|
4,2,7.4|
4,3,1.4|
4,4,3.8|
4,5,0.82|
4,6,2.1|
4,7,3.6|
5,0,7.9|
5,1,7.3|
5,2,4.2|
5,3,1.3|
5,4,3.7|
5,5,4.4|
5,6,2.1|
5,7,7.2|
6,0,7|
6,1,10|
6,2,4.6|
6,3,2.1|
6,4,9.7|
6,5,0.17|
6,6,0.046|
6,7,4.6|
7,0,7.2|
7,1,3.9|
7,2,6.3|
7,3,4.5|
7,4,3.3|
7,5,2.6|
7,6,4.1|
7,7,1.5|
];
constraint_x4_x3=[
0,0,9.8|
0,1,0.59|
0,2,1.7|
0,3,7.5|
0,4,9.8|
0,5,3.1|
0,6,6.6|
0,7,7.3|
1,0,10|
1,1,7.9|
1,2,4.1|
1,3,4.3|
1,4,5.9|
1,5,3.7|
1,6,8.1|
1,7,6.2|
2,0,2.4|
2,1,9.7|
2,2,4.4|
2,3,7.9|
2,4,4.1|
2,5,3.6|
2,6,7.7|
2,7,7.3|
3,0,2.3|
3,1,4.3|
3,2,9.1|
3,3,2.2|
3,4,8|
3,5,9.3|
3,6,5.2|
3,7,0.17|
4,0,6.6|
4,1,3.9|
4,2,0.13|
4,3,3.8|
4,4,1.3|
4,5,6.1|
4,6,9.8|
4,7,3.9|
5,0,5.5|
5,1,8.4|
5,2,4.1|
5,3,5.5|
5,4,9|
5,5,0.71|
5,6,1.1|
5,7,1|
6,0,8.6|
6,1,1.3|
6,2,1.6|
6,3,2.7|
6,4,5.9|
6,5,3.4|
6,6,8.7|
6,7,7.7|
7,0,7.2|
7,1,2.2|
7,2,0.7|
7,3,3.6|
7,4,5.6|
7,5,8|
7,6,8.6|
7,7,8.6|
];
constraint_x5_x1=[
0,0,9.7|
0,1,2.3|
0,2,2.8|
0,3,4.7|
0,4,9.6|
0,5,5.4|
0,6,8.1|
0,7,7.6|
1,0,0.86|
1,1,1.8|
1,2,8.9|
1,3,8.2|
1,4,8.6|
1,5,9.9|
1,6,5.7|
1,7,9|
2,0,0.47|
2,1,3.4|
2,2,1.2|
2,3,6.6|
2,4,0.4|
2,5,9|
2,6,0.46|
2,7,0.63|
3,0,1.9|
3,1,1.9|
3,2,8.4|
3,3,2|
3,4,0.46|
3,5,7.7|
3,6,6.6|
3,7,9.6|
4,0,6.2|
4,1,3.7|
4,2,4.2|
4,3,2.7|
4,4,3.3|
4,5,1.1|
4,6,9|
4,7,5.4|
5,0,0.041|
5,1,5.3|
5,2,8.4|
5,3,3.3|
5,4,6.8|
5,5,5.8|
5,6,0.58|
5,7,9.1|
6,0,7.8|
6,1,8.1|
6,2,5.5|
6,3,3.3|
6,4,6.1|
6,5,3.7|
6,6,3.1|
6,7,1.9|
7,0,0.75|
7,1,1.1|
7,2,2.3|
7,3,0.46|
7,4,3.3|
7,5,3.9|
7,6,2.8|
7,7,7.3|
];
constraint_x6_x2=[
0,0,8.6|
0,1,9.8|
0,2,2.5|
0,3,8|
0,4,6.5|
0,5,3.5|
0,6,6.5|
0,7,3.2|
1,0,0.27|
1,1,0.76|
1,2,1.8|
1,3,3.5|
1,4,4.2|
1,5,8.5|
1,6,7.9|
1,7,3.1|
2,0,0.31|
2,1,1.7|
2,2,7|
2,3,2.8|
2,4,5.6|
2,5,2.8|
2,6,0.45|
2,7,1.2|
3,0,5.1|
3,1,5.8|
3,2,1.3|
3,3,7.5|
3,4,0.087|
3,5,1.8|
3,6,9.1|
3,7,4.9|
4,0,2|
4,1,6.7|
4,2,8.7|
4,3,6.1|
4,4,6.8|
4,5,5.7|
4,6,0.079|
4,7,5.2|
5,0,3.4|
5,1,4.1|
5,2,7.1|
5,3,4.8|
5,4,9.8|
5,5,1.3|
5,6,0.5|
5,7,3.5|
6,0,9.3|
6,1,6.3|
6,2,4.2|
6,3,9.8|
6,4,1.8|
6,5,6.5|
6,6,9.2|
6,7,3|
7,0,3.8|
7,1,3.6|
7,2,5.4|
7,3,7.4|
7,4,4|
7,5,3.7|
7,6,9.8|
7,7,7.1|
];
constraint_x7_x3=[
0,0,9.7|
0,1,5.2|
0,2,5.6|
0,3,3.1|
0,4,7.7|
0,5,7.3|
0,6,2.4|
0,7,4.9|
1,0,0.77|
1,1,8|
1,2,7.8|
1,3,9.1|
1,4,2|
1,5,2.5|
1,6,0.35|
1,7,0.1|
2,0,7.1|
2,1,8.6|
2,2,4.3|
2,3,7|
2,4,9.2|
2,5,8.5|
2,6,3.8|
2,7,8.9|
3,0,1.6|
3,1,3.8|
3,2,2.6|
3,3,4.3|
3,4,6.4|
3,5,0.74|
3,6,9|
3,7,1.8|
4,0,2.2|
4,1,2.7|
4,2,9.1|
4,3,6.1|
4,4,9|
4,5,7.5|
4,6,4.9|
4,7,1|
5,0,2.8|
5,1,2.3|
5,2,1.1|
5,3,8.9|
5,4,9.2|
5,5,5.1|
5,6,7.4|
5,7,2.6|
6,0,8.2|
6,1,3.6|
6,2,7.6|
6,3,1.1|
6,4,7|
6,5,5.4|
6,6,2.9|
6,7,0.5|
7,0,5.4|
7,1,3.3|
7,2,6.4|
7,3,1.9|
7,4,9|
7,5,6|
7,6,9.3|
7,7,3.7|
];
constraint_x8_x4=[
0,0,7.7|
0,1,2.4|
0,2,2.4|
0,3,2|
0,4,8.8|
0,5,8.7|
0,6,3|
0,7,8.5|
1,0,6.8|
1,1,7.1|
1,2,6.6|
1,3,7.3|
1,4,8.1|
1,5,9.8|
1,6,4|
1,7,7.5|
2,0,3.9|
2,1,5.8|
2,2,5.5|
2,3,3.9|
2,4,6.3|
2,5,7|
2,6,7.7|
2,7,6.2|
3,0,9.2|
3,1,8.3|
3,2,2.1|
3,3,2.7|
3,4,2.8|
3,5,0.75|
3,6,4.3|
3,7,3.8|
4,0,6.9|
4,1,1.3|
4,2,0.92|
4,3,5.6|
4,4,2|
4,5,6.3|
4,6,3.1|
4,7,1.5|
5,0,0.87|
5,1,8.8|
5,2,3.6|
5,3,1.3|
5,4,6|
5,5,7.7|
5,6,9.7|
5,7,8.3|
6,0,8.4|
6,1,7.7|
6,2,8.2|
6,3,1.8|
6,4,5.5|
6,5,0.14|
6,6,8.5|
6,7,1.7|
7,0,6.9|
7,1,1.8|
7,2,4.9|
7,3,9.4|
7,4,0.34|
7,5,1.9|
7,6,6|
7,7,1.3|
];
constraint_x9_x5=[
0,0,9.6|
0,1,9.8|
0,2,9.4|
0,3,8.8|
0,4,9.2|
0,5,4.5|
0,6,2.4|
0,7,4.5|
1,0,2.6|
1,1,9.7|
1,2,6.2|
1,3,4.4|
1,4,9.3|
1,5,3.6|
1,6,1.9|
1,7,6.7|
2,0,4.9|
2,1,5.5|
2,2,5.4|
2,3,7.8|
2,4,2.7|
2,5,9.9|
2,6,8.5|
2,7,3.9|
3,0,1.5|
3,1,0.21|
3,2,4.3|
3,3,9.1|
3,4,7.8|
3,5,0.75|
3,6,2.9|
3,7,9.5|
4,0,9.3|
4,1,8.9|
4,2,6.1|
4,3,8.2|
4,4,0.12|
4,5,4.3|
4,6,3.9|
4,7,3.7|
5,0,9.6|
5,1,1.6|
5,2,4.2|
5,3,7.1|
5,4,1.5|
5,5,3.1|
5,6,1.1|
5,7,5|
6,0,9.3|
6,1,6.2|
6,2,2.1|
6,3,5.9|
6,4,5.7|
6,5,4.6|
6,6,5.2|
6,7,9.4|
7,0,5.3|
7,1,9.4|
7,2,3.9|
7,3,9.8|
7,4,5.1|
7,5,9.3|
7,6,7.6|
7,7,4.8|
];
constraint_x10_x6=[
0,0,0.84|
0,1,0.46|
0,2,8.4|
0,3,5.7|
0,4,9.8|
0,5,1.1|
0,6,8.2|
0,7,4.6|
1,0,5.1|
1,1,1.6|
1,2,8.3|
1,3,4.2|
1,4,2.1|
1,5,5.4|
1,6,4.2|
1,7,8|
2,0,6.2|
2,1,6.3|
2,2,6.1|
2,3,6.4|
2,4,6.8|
2,5,1|
2,6,1.4|
2,7,7.8|
3,0,1.4|
3,1,3.2|
3,2,7.5|
3,3,2.1|
3,4,2.8|
3,5,6.7|
3,6,0.36|
3,7,8.8|
4,0,5.6|
4,1,2.1|
4,2,1.9|
4,3,6.4|
4,4,2.9|
4,5,2|
4,6,1.1|
4,7,9.6|
5,0,8|
5,1,5.5|
5,2,8.4|
5,3,6.7|
5,4,5.5|
5,5,7.7|
5,6,0.21|
5,7,2.5|
6,0,9.4|
6,1,0.24|
6,2,5.8|
6,3,2.3|
6,4,0.6|
6,5,2.1|
6,6,8.2|
6,7,4.8|
7,0,5.3|
7,1,3|
7,2,0.27|
7,3,9.6|
7,4,3|
7,5,4.4|
7,6,2.1|
7,7,2|
];
constraint_x11_x7=[
0,0,0.006|
0,1,2.6|
0,2,5.7|
0,3,6.4|
0,4,5|
0,5,5.1|
0,6,6.1|
0,7,7.3|
1,0,0.71|
1,1,9|
1,2,1.8|
1,3,6.9|
1,4,3.9|
1,5,9.2|
1,6,5.6|
1,7,2.3|
2,0,3.1|
2,1,7.3|
2,2,5.4|
2,3,1.5|
2,4,8.8|
2,5,8.2|
2,6,4|
2,7,5.8|
3,0,7.8|
3,1,2.2|
3,2,1|
3,3,2.7|
3,4,7.1|
3,5,2|
3,6,2.6|
3,7,0.58|
4,0,5.9|
4,1,7.3|
4,2,0.27|
4,3,4.1|
4,4,9|
4,5,8.7|
4,6,3|
4,7,3.3|
5,0,9.6|
5,1,8.1|
5,2,1.7|
5,3,5.7|
5,4,1.4|
5,5,4.8|
5,6,10|
5,7,9.6|
6,0,8.9|
6,1,4.8|
6,2,7.5|
6,3,5.6|
6,4,5.8|
6,5,6.9|
6,6,9.3|
6,7,7.3|
7,0,5.5|
7,1,3|
7,2,2|
7,3,9.5|
7,4,2.5|
7,5,6.5|
7,6,5.9|
7,7,4.8|
];
constraint_x12_x8=[
0,0,4.9|
0,1,8.6|
0,2,1.8|
0,3,3.8|
0,4,9.1|
0,5,0.54|
0,6,7.4|
0,7,9.8|
1,0,4.9|
1,1,3.8|
1,2,7.4|
1,3,6.8|
1,4,3.3|
1,5,9.8|
1,6,3.3|
1,7,4.8|
2,0,7.6|
2,1,0.2|
2,2,0.028|
2,3,3.8|
2,4,6.1|
2,5,2.9|
2,6,5.5|
2,7,5.9|
3,0,9.4|
3,1,9|
3,2,2.9|
3,3,5.5|
3,4,5.6|
3,5,9|
3,6,6|
3,7,6.5|
4,0,3.6|
4,1,3.7|
4,2,5|
4,3,6.7|
4,4,8.3|
4,5,7.6|
4,6,6.6|
4,7,5.8|
5,0,5.4|
5,1,4.4|
5,2,5.4|
5,3,4.9|
5,4,8.4|
5,5,0.16|
5,6,5.5|
5,7,3.8|
6,0,2|
6,1,4.1|
6,2,5.9|
6,3,4.4|
6,4,4.3|
6,5,1.3|
6,6,9.1|
6,7,1.5|
7,0,3.7|
7,1,6.6|
7,2,7.4|
7,3,3|
7,4,3.6|
7,5,2|
7,6,2.5|
7,7,2|
];
constraint_x13_x9=[
0,0,0.63|
0,1,6.7|
0,2,9.1|
0,3,1.5|
0,4,4.1|
0,5,5.1|
0,6,7.7|
0,7,5.4|
1,0,4.5|
1,1,2.9|
1,2,8.2|
1,3,9.4|
1,4,1.7|
1,5,3.8|
1,6,4.8|
1,7,6.9|
2,0,5.6|
2,1,4.1|
2,2,1.3|
2,3,9.5|
2,4,0.88|
2,5,5.5|
2,6,2|
2,7,3|
3,0,6.2|
3,1,6.9|
3,2,9.4|
3,3,7.6|
3,4,4.6|
3,5,3|
3,6,5.4|
3,7,9.4|
4,0,0.29|
4,1,2.5|
4,2,1|
4,3,6.4|
4,4,7.8|
4,5,2.2|
4,6,4.3|
4,7,8.6|
5,0,2.3|
5,1,7.1|
5,2,1.2|
5,3,7.2|
5,4,9.3|
5,5,1.8|
5,6,8.1|
5,7,2.9|
6,0,7.8|
6,1,2.8|
6,2,9|
6,3,1.8|
6,4,3.1|
6,5,6.1|
6,6,3.8|
6,7,0.82|
7,0,3.9|
7,1,6.8|
7,2,8.6|
7,3,0.061|
7,4,9|
7,5,9.8|
7,6,5.9|
7,7,5.8|
];
constraint_x14_x10=[
0,0,0.76|
0,1,7.3|
0,2,3.5|
0,3,4.6|
0,4,8.7|
0,5,5.5|
0,6,5.3|
0,7,2.4|
1,0,0.25|
1,1,0.58|
1,2,3.4|
1,3,5.3|
1,4,0.28|
1,5,6.5|
1,6,3.5|
1,7,0.31|
2,0,4.3|
2,1,6.8|
2,2,4.6|
2,3,8.1|
2,4,5|
2,5,1.9|
2,6,6.9|
2,7,4|
3,0,7.8|
3,1,2.4|
3,2,3|
3,3,0.45|
3,4,8.7|
3,5,7.8|
3,6,0.83|
3,7,0.78|
4,0,2.4|
4,1,3.6|
4,2,9.3|
4,3,3.5|
4,4,6.9|
4,5,3.9|
4,6,4|
4,7,8.8|
5,0,6|
5,1,1.7|
5,2,5.7|
5,3,4.5|
5,4,4.9|
5,5,1.5|
5,6,7.6|
5,7,4.5|
6,0,8.7|
6,1,7.9|
6,2,2.3|
6,3,0.62|
6,4,5.9|
6,5,9.3|
6,6,1.2|
6,7,4.9|
7,0,1.5|
7,1,6.5|
7,2,0.83|
7,3,3.5|
7,4,8.2|
7,5,0.81|
7,6,7.5|
7,7,5|
];
constraint_x15_x11=[
0,0,5.7|
0,1,2.5|
0,2,1.5|
0,3,5.7|
0,4,7.3|
0,5,7|
0,6,6.2|
0,7,2.4|
1,0,1.3|
1,1,5.8|
1,2,3.1|
1,3,3.9|
1,4,0.46|
1,5,3.2|
1,6,1.9|
1,7,3.7|
2,0,3.3|
2,1,2.3|
2,2,7.6|
2,3,3.5|
2,4,5.9|
2,5,4.4|
2,6,1.4|
2,7,5|
3,0,5.2|
3,1,8.4|
3,2,1.3|
3,3,5.8|
3,4,6.9|
3,5,7.4|
3,6,2.5|
3,7,3.2|
4,0,2.7|
4,1,6.2|
4,2,1.9|
4,3,0.97|
4,4,1.8|
4,5,2.3|
4,6,6.1|
4,7,0.4|
5,0,2.6|
5,1,5|
5,2,8.4|
5,3,5.6|
5,4,8.2|
5,5,5.2|
5,6,5.4|
5,7,6.5|
6,0,3.2|
6,1,5.9|
6,2,1.9|
6,3,2.9|
6,4,3.4|
6,5,9.9|
6,6,0.82|
6,7,9.5|
7,0,1.3|
7,1,7.4|
7,2,2.4|
7,3,2.7|
7,4,3.4|
7,5,4.4|
7,6,6|
7,7,4.6|
];
constraint_x16_x12=[
0,0,1.3|
0,1,8.9|
0,2,9.8|
0,3,2.9|
0,4,1.1|
0,5,9.8|
0,6,5.4|
0,7,4.9|
1,0,8.1|
1,1,0.076|
1,2,9.9|
1,3,6.3|
1,4,7.4|
1,5,9|
1,6,9.2|
1,7,5.5|
2,0,1.9|
2,1,6.5|
2,2,9.2|
2,3,5.2|
2,4,2.1|
2,5,9.6|
2,6,3.5|
2,7,4.6|
3,0,8.4|
3,1,8.7|
3,2,8.8|
3,3,4.1|
3,4,0.36|
3,5,1.6|
3,6,1.5|
3,7,4|
4,0,7.8|
4,1,4|
4,2,4.9|
4,3,9.4|
4,4,3.8|
4,5,8.4|
4,6,2.8|
4,7,4.4|
5,0,6|
5,1,6.3|
5,2,0.28|
5,3,10|
5,4,5.5|
5,5,0.8|
5,6,4.7|
5,7,9|
6,0,5.1|
6,1,0.25|
6,2,3.5|
6,3,4.7|
6,4,1.8|
6,5,1|
6,6,8.5|
6,7,4.3|
7,0,0.14|
7,1,8.9|
7,2,2|
7,3,0.73|
7,4,2.9|
7,5,3.5|
7,6,3.7|
7,7,5.1|
];
constraint_x1_y1=[
0,0,5.6|
0,1,4|
0,2,4.6|
0,3,9.9|
0,4,5.2|
0,5,4.8|
0,6,3.4|
0,7,0.37|
1,0,3.4|
1,1,7.8|
1,2,3.4|
1,3,2.5|
1,4,4.6|
1,5,2.3|
1,6,5.2|
1,7,9.3|
2,0,9.6|
2,1,3.9|
2,2,0.6|
2,3,7.7|
2,4,1.2|
2,5,6.6|
2,6,4.5|
2,7,1.3|
3,0,3.8|
3,1,2.3|
3,2,7.5|
3,3,0.49|
3,4,9.3|
3,5,5|
3,6,7.3|
3,7,0.51|
4,0,1.7|
4,1,0.92|
4,2,4.1|
4,3,5.5|
4,4,2.6|
4,5,7.4|
4,6,0.43|
4,7,8.1|
5,0,7.2|
5,1,4.5|
5,2,1.6|
5,3,1.8|
5,4,5.3|
5,5,8.9|
5,6,4.1|
5,7,5.4|
6,0,8.9|
6,1,4.7|
6,2,5.7|
6,3,7.9|
6,4,8.2|
6,5,1.2|
6,6,7|
6,7,3.1|
7,0,9|
7,1,6.8|
7,2,7|
7,3,3.7|
7,4,7.1|
7,5,9.1|
7,6,1.6|
7,7,5.4|
];
constraint_x2_y2=[
0,0,3.5|
0,1,4.8|
0,2,6.9|
0,3,3.3|
0,4,0.81|
0,5,0.14|
0,6,2.8|
0,7,0.26|
1,0,5.2|
1,1,8.8|
1,2,2.5|
1,3,0.26|
1,4,1.5|
1,5,6.2|
1,6,6.7|
1,7,7.4|
2,0,2.3|
2,1,4.3|
2,2,4.9|
2,3,3.1|
2,4,6|
2,5,3|
2,6,8.2|
2,7,5.3|
3,0,4.8|
3,1,5.7|
3,2,4.5|
3,3,9.9|
3,4,2.5|
3,5,4.6|
3,6,6.2|
3,7,3.9|
4,0,6.3|
4,1,0.92|
4,2,4.1|
4,3,1|
4,4,9|
4,5,8.3|
4,6,0.95|
4,7,2.2|
5,0,2.1|
5,1,0.61|
5,2,5.9|
5,3,8.3|
5,4,1.3|
5,5,6.5|
5,6,7.8|
5,7,5.9|
6,0,3|
6,1,6.9|
6,2,3.8|
6,3,9.7|
6,4,9.7|
6,5,1.9|
6,6,6.7|
6,7,7|
7,0,4|
7,1,1.2|
7,2,6|
7,3,7.2|
7,4,8.4|
7,5,1|
7,6,7.2|
7,7,6.2|
];
constraint_x3_y3=[
0,0,0.96|
0,1,0.95|
0,2,0.93|
0,3,0.45|
0,4,5.5|
0,5,1.4|
0,6,9.9|
0,7,2.3|
1,0,2.1|
1,1,7.5|
1,2,3.5|
1,3,0.85|
1,4,3.3|
1,5,7.8|
1,6,8.2|
1,7,7.2|
2,0,5.6|
2,1,8.6|
2,2,4.7|
2,3,9.4|
2,4,3.2|
2,5,6.2|
2,6,9.9|
2,7,3.7|
3,0,2.5|
3,1,2.8|
3,2,1.4|
3,3,0.65|
3,4,6.6|
3,5,5|
3,6,3.1|
3,7,0.61|
4,0,9.6|
4,1,6.1|
4,2,4.9|
4,3,1.4|
4,4,0.95|
4,5,9.4|
4,6,4.2|
4,7,2.2|
5,0,9.7|
5,1,0.33|
5,2,3.9|
5,3,4.3|
5,4,1.8|
5,5,6.8|
5,6,6.8|
5,7,8.9|
6,0,8.2|
6,1,5.1|
6,2,8|
6,3,2.5|
6,4,8.2|
6,5,3.4|
6,6,2|
6,7,3.3|
7,0,5.7|
7,1,4.1|
7,2,2.2|
7,3,9.1|
7,4,1.9|
7,5,0.32|
7,6,0.17|
7,7,2.8|
];
constraint_x4_y4=[
0,0,5.6|
0,1,0.41|
0,2,2|
0,3,6.7|
0,4,7.1|
0,5,9.1|
0,6,0.88|
0,7,5|
1,0,4|
1,1,6.4|
1,2,2.9|
1,3,8.1|
1,4,2.5|
1,5,1.6|
1,6,0.36|
1,7,2.6|
2,0,9.7|
2,1,7.7|
2,2,0.86|
2,3,5.9|
2,4,1.2|
2,5,8.9|
2,6,2.4|
2,7,3.1|
3,0,3.1|
3,1,0.76|
3,2,9.1|
3,3,1.9|
3,4,9.2|
3,5,8.2|
3,6,8.8|
3,7,6.2|
4,0,7.9|
4,1,8.9|
4,2,1.3|
4,3,5.8|
4,4,9.1|
4,5,6.7|
4,6,6.5|
4,7,4.8|
5,0,4.1|
5,1,9.3|
5,2,4.1|
5,3,1.3|
5,4,6.1|
5,5,1.7|
5,6,5.3|
5,7,0.19|
6,0,1.6|
6,1,4.3|
6,2,3.6|
6,3,4.7|
6,4,6.8|
6,5,6.2|
6,6,5.1|
6,7,8.2|
7,0,1.6|
7,1,9.2|
7,2,1.5|
7,3,10|
7,4,2.1|
7,5,4.5|
7,6,2.3|
7,7,3.3|
];
constraint_x5_y5=[
0,0,9.7|
0,1,4.1|
0,2,1.1|
0,3,1.3|
0,4,3.4|
0,5,4.8|
0,6,1|
0,7,8.3|
1,0,6.2|
1,1,9.2|
1,2,3|
1,3,7.8|
1,4,0.31|
1,5,5.6|
1,6,3.6|
1,7,1.6|
2,0,1.9|
2,1,0.093|
2,2,9|
2,3,9.5|
2,4,6|
2,5,3.7|
2,6,0.76|
2,7,5|
3,0,7.8|
3,1,2.8|
3,2,7.3|
3,3,3|
3,4,4.4|
3,5,8.2|
3,6,1.7|
3,7,2.1|
4,0,7.4|
4,1,6|
4,2,7.4|
4,3,4.2|
4,4,6.1|
4,5,5.8|
4,6,9.1|
4,7,5.7|
5,0,4.7|
5,1,4|
5,2,2.4|
5,3,3.2|
5,4,0.76|
5,5,0.055|
5,6,7.3|
5,7,5.2|
6,0,3|
6,1,3.2|
6,2,0.15|
6,3,3.7|
6,4,4.4|
6,5,9.9|
6,6,1.1|
6,7,4.9|
7,0,8|
7,1,9.8|
7,2,7.1|
7,3,1.6|
7,4,0.43|
7,5,9.6|
7,6,0.91|
7,7,2.4|
];
constraint_x6_y6=[
0,0,7.8|
0,1,5|
0,2,5.6|
0,3,3.2|
0,4,0.048|
0,5,7.7|
0,6,6.7|
0,7,0.53|
1,0,1.9|
1,1,9.7|
1,2,8.5|
1,3,8.8|
1,4,1.3|
1,5,4.1|
1,6,4.2|
1,7,1.2|
2,0,6.5|
2,1,6.4|
2,2,3.2|
2,3,0.28|
2,4,7.8|
2,5,3.5|
2,6,5.8|
2,7,3.1|
3,0,9.2|
3,1,7.1|
3,2,0.24|
3,3,6.1|
3,4,9.9|
3,5,0.78|
3,6,4.8|
3,7,0.16|
4,0,7.9|
4,1,4.5|
4,2,5.3|
4,3,0.96|
4,4,4.8|
4,5,3.8|
4,6,7.5|
4,7,3.3|
5,0,9.9|
5,1,4.4|
5,2,2.6|
5,3,4.3|
5,4,1.1|
5,5,5|
5,6,5.1|
5,7,2.4|
6,0,7.2|
6,1,5.9|
6,2,4.5|
6,3,3.3|
6,4,6.8|
6,5,4.6|
6,6,1.8|
6,7,0.47|
7,0,3.1|
7,1,2.2|
7,2,4.4|
7,3,2.5|
7,4,9.3|
7,5,1.1|
7,6,8|
7,7,2.3|
];
constraint_x7_y7=[
0,0,9.1|
0,1,3.2|
0,2,9|
0,3,5.7|
0,4,5.1|
0,5,7.8|
0,6,1.8|
0,7,6.7|
1,0,4.8|
1,1,7.5|
1,2,6.5|
1,3,0.96|
1,4,0.36|
1,5,7.4|
1,6,9.6|
1,7,8.4|
2,0,8.4|
2,1,6.3|
2,2,0.65|
2,3,8.1|
2,4,0.4|
2,5,4|
2,6,7.3|
2,7,2.2|
3,0,3.1|
3,1,3.3|
3,2,2|
3,3,5.9|
3,4,2.2|
3,5,1.2|
3,6,7.1|
3,7,5.1|
4,0,6.3|
4,1,1.3|
4,2,3.2|
4,3,7.4|
4,4,7.2|
4,5,6.9|
4,6,8.8|
4,7,1.3|
5,0,1.9|
5,1,4.5|
5,2,1.1|
5,3,6.1|
5,4,3.3|
5,5,7.5|
5,6,4.9|
5,7,9.6|
6,0,5.7|
6,1,2.9|
6,2,6.9|
6,3,0.21|
6,4,2.3|
6,5,0.1|
6,6,1.7|
6,7,8.1|
7,0,8.8|
7,1,6.7|
7,2,5.8|
7,3,7.7|
7,4,4.7|
7,5,8.2|
7,6,0.15|
7,7,7.2|
];
initial_distribution_y1=[0.19,0.2,0.17,0.13,0.026,0.08,0.16,0.043];
initial_distribution_y2=[0.23,0.25,0.029,0.093,0.11,0.026,0.13,0.14];
initial_distribution_y3=[0.088,0.14,0.15,0.087,0.092,0.054,0.12,0.26];
initial_distribution_y4=[0.18,0.039,0.068,0.13,0.15,0.11,0.18,0.15];
initial_distribution_y5=[0.15,0.16,0.15,0.071,0.036,0.11,0.13,0.19];
initial_distribution_y6=[0.13,0.017,0.13,0.13,0.12,0.15,0.14,0.18];
initial_distribution_y7=[0.11,0.17,0.19,0.1,0.0053,0.16,0.077,0.18];
transition_y1=[
0.1,0.23,0.24,0.16,0.13,0.018,0.099,0.019|
0.02,0.019,0.076,0.26,0.042,0.23,0.097,0.25|
0.12,0.017,0.18,0.065,0.1,0.18,0.16,0.18|
0.2,0.06,0.065,0.25,0.029,0.17,0.078,0.15|
0.084,0.14,0.12,0.088,0.16,0.13,0.13,0.16|
0.34,0.0074,0.29,0.065,0.036,0.096,0.17,0.0058|
0.18,0.029,0.076,0.037,0.15,0.17,0.22,0.13|
0.13,0.18,0.1,0.17,0.12,0.017,0.1,0.19|
];
transition_y2=[
0.083,0.18,0.19,0.061,0.065,0.19,0.096,0.14|
0.061,0.035,0.3,0.18,0.34,0.037,0.0065,0.047|
0.15,0.11,0.086,0.045,0.084,0.27,0.13,0.12|
0.19,0.044,0.22,0.29,0.18,0.0059,0.012,0.056|
0.14,0.15,0.23,0.13,0.057,0.015,0.17,0.11|
0.12,0.13,0.038,0.3,0.015,0.2,0.09,0.12|
0.11,0.018,0.13,0.14,0.14,0.11,0.28,0.064|
0.079,0.079,0.16,0.077,0.18,0.18,0.14,0.098|
];
transition_y3=[
0.19,0.078,0.13,0.21,0.046,0.021,0.0071,0.32|
0.023,0.22,0.22,0.15,0.074,0.03,0.1,0.19|
0.2,0.098,0.13,0.091,0.06,0.16,0.18,0.096|
0.15,0.11,0.17,0.073,0.12,0.13,0.053,0.19|
0.033,0.014,0.23,0.22,0.1,0.14,0.15,0.11|
0.18,0.21,0.21,0.1,0.0077,0.14,0.063,0.081|
0.16,0.12,0.11,0.2,0.053,0.15,0.17,0.043|
0.14,0.04,0.092,0.15,0.074,0.16,0.17,0.16|
];
transition_y4=[
0.038,0.27,0.17,0.23,0.13,0.11,0.018,0.038|
0.21,0.017,0.097,0.21,0.19,0.0069,0.094,0.17|
0.051,0.073,0.19,0.22,0.21,0.084,0.047,0.13|
0.21,0.021,0.035,0.089,0.11,0.12,0.12,0.3|
0.12,0.047,0.07,0.059,0.032,0.23,0.2,0.24|
0.09,0.23,0.19,0.17,0.16,0.047,0.039,0.081|
0.11,0.15,0.02,0.16,0.15,0.13,0.13,0.15|
0.15,0.073,0.15,0.13,0.13,0.13,0.11,0.13|
];
transition_y5=[
0.066,0.092,0.16,0.03,0.13,0.12,0.16,0.25|
0.17,0.17,0.14,0.039,0.11,0.24,0.07,0.076|
0.11,0.091,0.11,0.13,0.16,0.13,0.14,0.14|
0.21,0.21,0.039,0.014,0.09,0.13,0.11,0.21|
0.13,0.11,0.044,0.068,0.14,0.16,0.24,0.11|
0.069,0.15,0.012,0.14,0.021,0.28,0.25,0.079|
0.0053,0.12,0.23,0.27,0.016,0.048,0.23,0.085|
0.072,0.056,0.14,0.17,0.17,0.2,0.17,0.025|
];
transition_y6=[
0.18,0.22,0.11,0.088,0.036,0.15,0.15,0.065|
0.3,0.11,0.024,0.089,0.13,0.21,0.0079,0.13|
0.17,0.079,0.016,0.27,0.0092,0.23,0.15,0.075|
0.019,0.035,0.12,0.17,0.075,0.19,0.19,0.19|
0.049,0.093,0.053,0.16,0.11,0.2,0.11,0.22|
0.17,0.2,0.21,0.14,0.17,0.075,0.035,0.0076|
0.15,0.11,0.17,0.12,0.23,0.18,0.021,0.0076|
0.063,0.16,0.13,0.17,0.1,0.12,0.15,0.11|
];
transition_y7=[
0.059,0.13,0.045,0.15,0.22,0.21,0.15,0.024|
0.026,0.28,0.14,0.039,0.21,0.24,0.017,0.063|
0.2,0.12,0.14,0.061,0.08,0.21,0.13,0.058|
0.096,0.037,0.17,0.034,0.14,0.17,0.17,0.17|
0.11,0.19,0.12,0.17,0.16,0.16,0.0066,0.091|
0.059,0.12,0.15,0.21,0.1,0.028,0.21,0.12|
0.17,0.22,0.011,0.19,0.16,0.06,0.12,0.067|
0.033,0.17,0.048,0.12,0.21,0.16,0.025,0.23|
];
